p cnf 534 1620
a 2 3 4 5 6 7 8 9 13 18 20 25 30 35 38 39 46 47 51 55 56 59 63 67 69 71 73 75 76 80 84 86 90 94 99 101 105 107 108 112 114 117 118 0
e 1 10 11 12 14 15 16 17 19 21 22 23 24 26 27 28 29 31 32 33 34 36 37 40 41 42 43 44 45 48 49 50 52 53 54 57 58 60 61 62 64 65 66 68 70 72 74 77 78 79 81 82 83 85 87 88 89 91 92 93 95 96 97 98 100 102 103 104 106 109 110 111 113 115 116 119 120 121 122 123 124 125 126 127 128 129 130 131 132 133 134 135 136 137 138 139 140 141 142 143 144 145 146 147 148 149 150 151 152 153 154 155 156 157 158 159 160 161 162 163 164 165 166 167 168 169 170 171 172 173 174 175 176 177 178 179 180 181 182 183 184 185 186 187 188 189 190 191 192 193 194 195 196 197 198 199 200 201 202 203 204 205 206 207 208 209 210 211 212 213 214 215 216 217 218 219 220 221 222 223 224 225 226 227 228 229 230 231 232 233 234 235 236 237 238 239 240 241 242 243 244 245 246 247 248 249 250 251 252 253 254 255 256 257 258 259 260 261 262 263 264 265 266 267 268 269 270 271 272 273 274 275 276 277 278 279 280 281 282 283 284 285 286 287 288 289 290 291 292 293 294 295 296 297 298 299 300 301 302 303 304 305 306 307 308 309 310 311 312 313 314 315 316 317 318 319 320 321 322 323 324 325 326 327 328 329 330 331 332 333 334 335 336 337 338 339 340 341 342 343 344 345 346 347 348 349 350 351 352 353 354 355 356 357 358 359 360 361 362 363 364 365 366 367 368 369 370 371 372 373 374 375 376 377 378 379 380 381 382 383 384 385 386 387 388 389 390 391 392 393 394 395 396 397 398 399 400 401 402 403 404 405 406 407 408 409 410 411 412 413 414 415 416 417 418 419 420 421 422 423 424 425 426 427 428 429 430 431 432 433 434 435 436 437 438 439 440 441 442 443 444 445 446 447 448 449 450 451 452 453 454 455 456 457 458 459 460 461 462 463 464 465 466 467 468 469 470 471 472 473 474 475 476 477 478 479 480 481 482 483 484 485 486 487 488 489 490 491 492 493 494 495 496 497 498 499 500 501 502 503 504 505 506 507 508 509 510 511 512 513 514 515 516 517 518 519 520 521 522 523 524 525 526 527 528 529 530 531 532 533 534 0
1 0
8 -10 0
9 -10 0
-8 -9 10 0
8 -11 0
-9 -11 0
-8 9 11 0
8 12 0
-10 12 0
-11 12 0
-8 10 11 -12 0
-13 14 0
13 14 0
7 -15 0
12 -15 0
14 -15 0
-7 -12 -14 15 0
-7 -16 0
12 -16 0
7 -12 16 0
-15 17 0
-16 17 0
15 16 -17 0
-18 19 0
18 19 0
-20 21 0
20 21 0
6 -22 0
17 -22 0
19 -22 0
21 -22 0
-6 -17 -19 -21 22 0
-6 -23 0
17 -23 0
19 -23 0
6 -17 -19 23 0
-22 24 0
-23 24 0
22 23 -24 0
25 26 0
-25 26 0
5 -27 0
24 -27 0
26 -27 0
-5 -24 -26 27 0
-5 -28 0
24 -28 0
5 -24 28 0
-27 29 0
-28 29 0
27 28 -29 0
30 31 0
-30 31 0
4 -32 0
29 -32 0
31 -32 0
-4 -29 -31 32 0
-4 -33 0
29 -33 0
4 -29 33 0
-32 34 0
-33 34 0
32 33 -34 0
35 36 0
-35 36 0
3 -37 0
34 -37 0
36 -37 0
-3 -34 -36 37 0
39 40 0
-39 40 0
38 -41 0
34 -41 0
40 -41 0
-38 -34 -40 41 0
-38 -42 0
34 -42 0
38 -34 42 0
-41 43 0
-42 43 0
41 42 -43 0
-3 -44 0
43 -44 0
3 -43 44 0
-37 45 0
-44 45 0
37 44 -45 0
46 -48 0
47 -48 0
-46 -47 48 0
46 -49 0
-47 -49 0
-46 47 49 0
-48 50 0
-49 50 0
48 49 -50 0
50 -52 0
51 -52 0
-50 -51 52 0
50 -53 0
-51 -53 0
-50 51 53 0
-52 54 0
-53 54 0
52 53 -54 0
54 -57 0
-55 -57 0
56 -57 0
-54 55 -56 57 0
54 -58 0
-55 -58 0
-56 -58 0
-54 55 56 58 0
54 -60 0
55 -60 0
59 -60 0
-54 -55 -59 60 0
54 -61 0
55 -61 0
-59 -61 0
-54 -55 59 61 0
-57 62 0
-58 62 0
-60 62 0
-61 62 0
57 58 60 61 -62 0
62 -64 0
63 -64 0
-62 -63 64 0
62 -65 0
-63 -65 0
-62 63 65 0
-64 66 0
-65 66 0
64 65 -66 0
66 -68 0
67 -68 0
-66 -67 68 0
66 -70 0
-67 -70 0
69 -70 0
-66 67 -69 70 0
66 -72 0
-67 -72 0
-69 -72 0
71 -72 0
-66 67 69 -71 72 0
66 -74 0
-67 -74 0
-69 -74 0
-71 -74 0
73 -74 0
-66 67 69 71 -73 74 0
66 -77 0
-67 -77 0
-69 -77 0
-71 -77 0
-73 -77 0
75 -77 0
76 -77 0
-66 67 69 71 73 -75 -76 77 0
66 -78 0
-67 -78 0
-69 -78 0
-71 -78 0
-73 -78 0
75 -78 0
-76 -78 0
-66 67 69 71 73 -75 76 78 0
-77 79 0
-78 79 0
77 78 -79 0
79 -81 0
80 -81 0
-79 -80 81 0
79 -82 0
-80 -82 0
-79 80 82 0
-81 83 0
-82 83 0
81 82 -83 0
83 -85 0
84 -85 0
-83 -84 85 0
66 -87 0
-67 -87 0
-69 -87 0
-71 -87 0
-73 -87 0
-75 -87 0
86 -87 0
-66 67 69 71 73 75 -86 87 0
66 -88 0
-67 -88 0
-69 -88 0
-71 -88 0
-73 -88 0
-75 -88 0
-86 -88 0
-66 67 69 71 73 75 86 88 0
-87 89 0
-88 89 0
87 88 -89 0
89 -91 0
90 -91 0
-89 -90 91 0
89 -92 0
-90 -92 0
-89 90 92 0
-91 93 0
-92 93 0
91 92 -93 0
93 -95 0
94 -95 0
-93 -94 95 0
83 -96 0
-84 -96 0
-83 84 96 0
93 -97 0
-94 -97 0
-93 94 97 0
-85 98 0
-95 98 0
-96 98 0
-97 98 0
85 95 96 97 -98 0
98 -100 0
-99 -100 0
-98 99 100 0
98 -102 0
99 -102 0
101 -102 0
-98 -99 -101 102 0
98 -103 0
99 -103 0
-101 -103 0
-98 -99 101 103 0
46 104 0
-68 104 0
-70 104 0
-72 104 0
-74 104 0
-100 104 0
-102 104 0
-103 104 0
-46 68 70 72 74 100 102 103 -104 0
-105 106 0
105 106 0
-108 109 0
108 109 0
107 -110 0
109 -110 0
-107 -109 110 0
107 111 0
-110 111 0
-107 110 -111 0
2 -113 0
45 -113 0
104 -113 0
106 -113 0
111 -113 0
112 -113 0
-2 -45 -104 -106 -111 -112 113 0
-2 -115 0
45 -115 0
104 -115 0
106 -115 0
111 -115 0
114 -115 0
2 -45 -104 -106 -111 -114 115 0
-113 116 0
-115 116 0
113 115 -116 0
-117 -119 0
118 -119 0
117 -118 119 0
-117 -120 0
-118 -120 0
117 118 120 0
-117 121 0
-119 121 0
-120 121 0
117 119 120 -121 0
116 -122 0
121 -122 0
-116 -121 122 0
-13 123 0
13 123 0
7 -124 0
123 -124 0
-7 -123 124 0
-124 125 0
7 125 0
124 -7 -125 0
125 -126 0
20 -126 0
-125 -20 126 0
125 -127 0
-20 -127 0
-125 20 127 0
-126 128 0
-127 128 0
126 127 -128 0
6 -129 0
128 -129 0
-6 -128 129 0
-6 -130 0
125 -130 0
6 -125 130 0
-129 131 0
-130 131 0
129 130 -131 0
131 -132 0
-25 -132 0
-131 25 132 0
131 -133 0
25 -133 0
-131 -25 133 0
-132 134 0
-133 134 0
132 133 -134 0
5 -135 0
134 -135 0
-5 -134 135 0
-5 -136 0
131 -136 0
5 -131 136 0
-135 137 0
-136 137 0
135 136 -137 0
137 -138 0
-30 -138 0
-137 30 138 0
137 -139 0
30 -139 0
-137 -30 139 0
-138 140 0
-139 140 0
138 139 -140 0
4 -141 0
140 -141 0
-4 -140 141 0
-4 -142 0
137 -142 0
4 -137 142 0
-141 143 0
-142 143 0
141 142 -143 0
143 -144 0
-35 -144 0
-143 35 144 0
143 -145 0
35 -145 0
-143 -35 145 0
-144 146 0
-145 146 0
144 145 -146 0
3 -147 0
146 -147 0
-3 -146 147 0
143 -148 0
-39 -148 0
-143 39 148 0
143 -149 0
39 -149 0
-143 -39 149 0
-148 150 0
-149 150 0
148 149 -150 0
38 -151 0
150 -151 0
-38 -150 151 0
-38 -152 0
143 -152 0
38 -143 152 0
-151 153 0
-152 153 0
151 152 -153 0
-3 -154 0
153 -154 0
3 -153 154 0
-147 155 0
-154 155 0
147 154 -155 0
155 -156 0
-46 -156 0
-155 46 156 0
155 -157 0
46 -157 0
47 -157 0
-155 -46 -47 157 0
155 -158 0
46 -158 0
-47 -158 0
-155 -46 47 158 0
-157 159 0
-158 159 0
157 158 -159 0
159 -160 0
50 -160 0
51 -160 0
-159 -50 -51 160 0
159 -161 0
50 -161 0
-51 -161 0
-159 -50 51 161 0
-160 162 0
-161 162 0
160 161 -162 0
162 -163 0
62 -163 0
63 -163 0
-162 -62 -63 163 0
162 -164 0
62 -164 0
-63 -164 0
-162 -62 63 164 0
-163 165 0
-164 165 0
163 164 -165 0
-68 166 0
-70 166 0
-72 166 0
-74 166 0
68 70 72 74 -166 0
165 -167 0
166 -167 0
-165 -166 167 0
165 -168 0
66 -168 0
-67 -168 0
-69 -168 0
-71 -168 0
-73 -168 0
-75 -168 0
86 -168 0
-165 -66 67 69 71 73 75 -86 168 0
165 -169 0
66 -169 0
-67 -169 0
-69 -169 0
-71 -169 0
-73 -169 0
-75 -169 0
-86 -169 0
-165 -66 67 69 71 73 75 86 169 0
-168 170 0
-169 170 0
168 169 -170 0
170 -171 0
89 -171 0
90 -171 0
-170 -89 -90 171 0
170 -172 0
89 -172 0
-90 -172 0
-170 -89 90 172 0
-171 173 0
-172 173 0
171 172 -173 0
173 -174 0
93 -174 0
94 -174 0
-173 -93 -94 174 0
173 -175 0
93 -175 0
-94 -175 0
-173 -93 94 175 0
165 -176 0
66 -176 0
-67 -176 0
-69 -176 0
-71 -176 0
-73 -176 0
75 -176 0
76 -176 0
-165 -66 67 69 71 73 -75 -76 176 0
165 -177 0
66 -177 0
-67 -177 0
-69 -177 0
-71 -177 0
-73 -177 0
75 -177 0
-76 -177 0
-165 -66 67 69 71 73 -75 76 177 0
-176 178 0
-177 178 0
176 177 -178 0
178 -179 0
79 -179 0
80 -179 0
-178 -79 -80 179 0
178 -180 0
79 -180 0
-80 -180 0
-178 -79 80 180 0
-179 181 0
-180 181 0
179 180 -181 0
181 -182 0
83 -182 0
84 -182 0
-181 -83 -84 182 0
181 -183 0
83 -183 0
-84 -183 0
-181 -83 84 183 0
-174 184 0
-175 184 0
-182 184 0
-183 184 0
174 175 182 183 -184 0
-102 185 0
-103 185 0
102 103 -185 0
-100 186 0
-185 186 0
100 185 -186 0
184 -187 0
186 -187 0
-184 -186 187 0
-156 188 0
-167 188 0
-187 188 0
156 167 187 -188 0
188 -189 0
107 -189 0
109 -189 0
-188 -107 -109 189 0
188 -190 0
-107 -190 0
-188 107 190 0
-189 191 0
-190 191 0
189 190 -191 0
191 -192 0
117 -192 0
-191 -117 192 0
-119 193 0
-120 193 0
119 120 -193 0
191 -194 0
193 -194 0
-191 -193 194 0
-192 195 0
-194 195 0
192 194 -195 0
-13 196 0
13 196 0
7 -197 0
196 -197 0
-7 -196 197 0
-197 198 0
7 198 0
197 -7 -198 0
198 -199 0
20 -199 0
-198 -20 199 0
198 -200 0
-20 -200 0
-198 20 200 0
-199 201 0
-200 201 0
199 200 -201 0
6 -202 0
201 -202 0
-6 -201 202 0
-6 -203 0
198 -203 0
6 -198 203 0
-202 204 0
-203 204 0
202 203 -204 0
204 -205 0
-25 -205 0
-204 25 205 0
204 -206 0
25 -206 0
-204 -25 206 0
-205 207 0
-206 207 0
205 206 -207 0
5 -208 0
207 -208 0
-5 -207 208 0
-5 -209 0
204 -209 0
5 -204 209 0
-208 210 0
-209 210 0
208 209 -210 0
210 -211 0
-30 -211 0
-210 30 211 0
210 -212 0
30 -212 0
-210 -30 212 0
-211 213 0
-212 213 0
211 212 -213 0
4 -214 0
213 -214 0
-4 -213 214 0
-4 -215 0
210 -215 0
4 -210 215 0
-214 216 0
-215 216 0
214 215 -216 0
216 -217 0
-35 -217 0
-216 35 217 0
216 -218 0
35 -218 0
-216 -35 218 0
-217 219 0
-218 219 0
217 218 -219 0
3 -220 0
219 -220 0
-3 -219 220 0
216 -221 0
-39 -221 0
-216 39 221 0
216 -222 0
39 -222 0
-216 -39 222 0
-221 223 0
-222 223 0
221 222 -223 0
38 -224 0
223 -224 0
-38 -223 224 0
-38 -225 0
216 -225 0
38 -216 225 0
-224 226 0
-225 226 0
224 225 -226 0
-3 -227 0
226 -227 0
3 -226 227 0
-220 228 0
-227 228 0
220 227 -228 0
228 -229 0
-46 -229 0
-228 46 229 0
228 -230 0
46 -230 0
47 -230 0
-228 -46 -47 230 0
228 -231 0
46 -231 0
-47 -231 0
-228 -46 47 231 0
-230 232 0
-231 232 0
230 231 -232 0
232 -233 0
50 -233 0
51 -233 0
-232 -50 -51 233 0
232 -234 0
50 -234 0
-51 -234 0
-232 -50 51 234 0
-233 235 0
-234 235 0
233 234 -235 0
235 -236 0
62 -236 0
63 -236 0
-235 -62 -63 236 0
235 -237 0
62 -237 0
-63 -237 0
-235 -62 63 237 0
-236 238 0
-237 238 0
236 237 -238 0
-68 239 0
-70 239 0
-72 239 0
-74 239 0
68 70 72 74 -239 0
238 -240 0
239 -240 0
-238 -239 240 0
238 -241 0
66 -241 0
-67 -241 0
-69 -241 0
-71 -241 0
-73 -241 0
-75 -241 0
86 -241 0
-238 -66 67 69 71 73 75 -86 241 0
238 -242 0
66 -242 0
-67 -242 0
-69 -242 0
-71 -242 0
-73 -242 0
-75 -242 0
-86 -242 0
-238 -66 67 69 71 73 75 86 242 0
-241 243 0
-242 243 0
241 242 -243 0
243 -244 0
89 -244 0
90 -244 0
-243 -89 -90 244 0
243 -245 0
89 -245 0
-90 -245 0
-243 -89 90 245 0
-244 246 0
-245 246 0
244 245 -246 0
246 -247 0
93 -247 0
94 -247 0
-246 -93 -94 247 0
246 -248 0
93 -248 0
-94 -248 0
-246 -93 94 248 0
238 -249 0
66 -249 0
-67 -249 0
-69 -249 0
-71 -249 0
-73 -249 0
75 -249 0
76 -249 0
-238 -66 67 69 71 73 -75 -76 249 0
238 -250 0
66 -250 0
-67 -250 0
-69 -250 0
-71 -250 0
-73 -250 0
75 -250 0
-76 -250 0
-238 -66 67 69 71 73 -75 76 250 0
-249 251 0
-250 251 0
249 250 -251 0
251 -252 0
79 -252 0
80 -252 0
-251 -79 -80 252 0
251 -253 0
79 -253 0
-80 -253 0
-251 -79 80 253 0
-252 254 0
-253 254 0
252 253 -254 0
254 -255 0
83 -255 0
84 -255 0
-254 -83 -84 255 0
254 -256 0
83 -256 0
-84 -256 0
-254 -83 84 256 0
-247 257 0
-248 257 0
-255 257 0
-256 257 0
247 248 255 256 -257 0
-100 258 0
-185 258 0
100 185 -258 0
257 -259 0
258 -259 0
-257 -258 259 0
-229 260 0
-240 260 0
-259 260 0
229 240 259 -260 0
260 -261 0
107 -261 0
109 -261 0
-260 -107 -109 261 0
260 -262 0
-107 -262 0
-260 107 262 0
-261 263 0
-262 263 0
261 262 -263 0
263 -264 0
117 -264 0
-263 -117 264 0
263 -265 0
193 -265 0
-263 -193 265 0
-264 266 0
-265 266 0
264 265 -266 0
273 -275 0
274 -275 0
-273 -274 275 0
273 -276 0
-274 -276 0
-273 274 276 0
273 277 0
-275 277 0
-276 277 0
-273 275 276 -277 0
-278 279 0
278 279 0
272 -280 0
277 -280 0
279 -280 0
-272 -277 -279 280 0
-272 -281 0
277 -281 0
272 -277 281 0
-280 282 0
-281 282 0
280 281 -282 0
-283 284 0
283 284 0
-285 286 0
285 286 0
271 -287 0
282 -287 0
284 -287 0
286 -287 0
-271 -282 -284 -286 287 0
-271 -288 0
282 -288 0
284 -288 0
271 -282 -284 288 0
-287 289 0
-288 289 0
287 288 -289 0
290 291 0
-290 291 0
270 -292 0
289 -292 0
291 -292 0
-270 -289 -291 292 0
-270 -293 0
289 -293 0
270 -289 293 0
-292 294 0
-293 294 0
292 293 -294 0
295 296 0
-295 296 0
269 -297 0
294 -297 0
296 -297 0
-269 -294 -296 297 0
-269 -298 0
294 -298 0
269 -294 298 0
-297 299 0
-298 299 0
297 298 -299 0
300 301 0
-300 301 0
268 -302 0
299 -302 0
301 -302 0
-268 -299 -301 302 0
304 305 0
-304 305 0
303 -306 0
299 -306 0
305 -306 0
-303 -299 -305 306 0
-303 -307 0
299 -307 0
303 -299 307 0
-306 308 0
-307 308 0
306 307 -308 0
-268 -309 0
308 -309 0
268 -308 309 0
-302 310 0
-309 310 0
302 309 -310 0
311 -313 0
312 -313 0
-311 -312 313 0
311 -314 0
-312 -314 0
-311 312 314 0
-313 315 0
-314 315 0
313 314 -315 0
315 -317 0
316 -317 0
-315 -316 317 0
315 -318 0
-316 -318 0
-315 316 318 0
-317 319 0
-318 319 0
317 318 -319 0
319 -322 0
-320 -322 0
321 -322 0
-319 320 -321 322 0
319 -323 0
-320 -323 0
-321 -323 0
-319 320 321 323 0
319 -325 0
320 -325 0
324 -325 0
-319 -320 -324 325 0
319 -326 0
320 -326 0
-324 -326 0
-319 -320 324 326 0
-322 327 0
-323 327 0
-325 327 0
-326 327 0
322 323 325 326 -327 0
327 -329 0
328 -329 0
-327 -328 329 0
327 -330 0
-328 -330 0
-327 328 330 0
-329 331 0
-330 331 0
329 330 -331 0
331 -333 0
332 -333 0
-331 -332 333 0
331 -335 0
-332 -335 0
334 -335 0
-331 332 -334 335 0
331 -337 0
-332 -337 0
-334 -337 0
336 -337 0
-331 332 334 -336 337 0
331 -339 0
-332 -339 0
-334 -339 0
-336 -339 0
338 -339 0
-331 332 334 336 -338 339 0
331 -342 0
-332 -342 0
-334 -342 0
-336 -342 0
-338 -342 0
340 -342 0
341 -342 0
-331 332 334 336 338 -340 -341 342 0
331 -343 0
-332 -343 0
-334 -343 0
-336 -343 0
-338 -343 0
340 -343 0
-341 -343 0
-331 332 334 336 338 -340 341 343 0
-342 344 0
-343 344 0
342 343 -344 0
344 -346 0
345 -346 0
-344 -345 346 0
344 -347 0
-345 -347 0
-344 345 347 0
-346 348 0
-347 348 0
346 347 -348 0
348 -350 0
349 -350 0
-348 -349 350 0
331 -352 0
-332 -352 0
-334 -352 0
-336 -352 0
-338 -352 0
-340 -352 0
351 -352 0
-331 332 334 336 338 340 -351 352 0
331 -353 0
-332 -353 0
-334 -353 0
-336 -353 0
-338 -353 0
-340 -353 0
-351 -353 0
-331 332 334 336 338 340 351 353 0
-352 354 0
-353 354 0
352 353 -354 0
354 -356 0
355 -356 0
-354 -355 356 0
354 -357 0
-355 -357 0
-354 355 357 0
-356 358 0
-357 358 0
356 357 -358 0
358 -360 0
359 -360 0
-358 -359 360 0
348 -361 0
-349 -361 0
-348 349 361 0
358 -362 0
-359 -362 0
-358 359 362 0
-350 363 0
-360 363 0
-361 363 0
-362 363 0
350 360 361 362 -363 0
363 -365 0
-364 -365 0
-363 364 365 0
363 -367 0
364 -367 0
366 -367 0
-363 -364 -366 367 0
363 -368 0
364 -368 0
-366 -368 0
-363 -364 366 368 0
311 369 0
-333 369 0
-335 369 0
-337 369 0
-339 369 0
-365 369 0
-367 369 0
-368 369 0
-311 333 335 337 339 365 367 368 -369 0
-370 371 0
370 371 0
-373 374 0
373 374 0
372 -375 0
374 -375 0
-372 -374 375 0
372 376 0
-375 376 0
-372 375 -376 0
267 -378 0
310 -378 0
369 -378 0
371 -378 0
376 -378 0
377 -378 0
-267 -310 -369 -371 -376 -377 378 0
-267 -380 0
310 -380 0
369 -380 0
371 -380 0
376 -380 0
379 -380 0
267 -310 -369 -371 -376 -379 380 0
-378 381 0
-380 381 0
378 380 -381 0
-382 -384 0
383 -384 0
382 -383 384 0
-382 -385 0
-383 -385 0
382 383 385 0
-382 386 0
-384 386 0
-385 386 0
382 384 385 -386 0
381 -387 0
386 -387 0
-381 -386 387 0
-278 388 0
278 388 0
272 -389 0
388 -389 0
-272 -388 389 0
-389 390 0
272 390 0
389 -272 -390 0
390 -391 0
285 -391 0
-390 -285 391 0
390 -392 0
-285 -392 0
-390 285 392 0
-391 393 0
-392 393 0
391 392 -393 0
271 -394 0
393 -394 0
-271 -393 394 0
-271 -395 0
390 -395 0
271 -390 395 0
-394 396 0
-395 396 0
394 395 -396 0
396 -397 0
-290 -397 0
-396 290 397 0
396 -398 0
290 -398 0
-396 -290 398 0
-397 399 0
-398 399 0
397 398 -399 0
270 -400 0
399 -400 0
-270 -399 400 0
-270 -401 0
396 -401 0
270 -396 401 0
-400 402 0
-401 402 0
400 401 -402 0
402 -403 0
-295 -403 0
-402 295 403 0
402 -404 0
295 -404 0
-402 -295 404 0
-403 405 0
-404 405 0
403 404 -405 0
269 -406 0
405 -406 0
-269 -405 406 0
-269 -407 0
402 -407 0
269 -402 407 0
-406 408 0
-407 408 0
406 407 -408 0
408 -409 0
-300 -409 0
-408 300 409 0
408 -410 0
300 -410 0
-408 -300 410 0
-409 411 0
-410 411 0
409 410 -411 0
268 -412 0
411 -412 0
-268 -411 412 0
408 -413 0
-304 -413 0
-408 304 413 0
408 -414 0
304 -414 0
-408 -304 414 0
-413 415 0
-414 415 0
413 414 -415 0
303 -416 0
415 -416 0
-303 -415 416 0
-303 -417 0
408 -417 0
303 -408 417 0
-416 418 0
-417 418 0
416 417 -418 0
-268 -419 0
418 -419 0
268 -418 419 0
-412 420 0
-419 420 0
412 419 -420 0
420 -421 0
-311 -421 0
-420 311 421 0
420 -422 0
311 -422 0
312 -422 0
-420 -311 -312 422 0
420 -423 0
311 -423 0
-312 -423 0
-420 -311 312 423 0
-422 424 0
-423 424 0
422 423 -424 0
424 -425 0
315 -425 0
316 -425 0
-424 -315 -316 425 0
424 -426 0
315 -426 0
-316 -426 0
-424 -315 316 426 0
-425 427 0
-426 427 0
425 426 -427 0
427 -428 0
327 -428 0
328 -428 0
-427 -327 -328 428 0
427 -429 0
327 -429 0
-328 -429 0
-427 -327 328 429 0
-428 430 0
-429 430 0
428 429 -430 0
-333 431 0
-335 431 0
-337 431 0
-339 431 0
333 335 337 339 -431 0
430 -432 0
431 -432 0
-430 -431 432 0
430 -433 0
331 -433 0
-332 -433 0
-334 -433 0
-336 -433 0
-338 -433 0
-340 -433 0
351 -433 0
-430 -331 332 334 336 338 340 -351 433 0
430 -434 0
331 -434 0
-332 -434 0
-334 -434 0
-336 -434 0
-338 -434 0
-340 -434 0
-351 -434 0
-430 -331 332 334 336 338 340 351 434 0
-433 435 0
-434 435 0
433 434 -435 0
435 -436 0
354 -436 0
355 -436 0
-435 -354 -355 436 0
435 -437 0
354 -437 0
-355 -437 0
-435 -354 355 437 0
-436 438 0
-437 438 0
436 437 -438 0
438 -439 0
358 -439 0
359 -439 0
-438 -358 -359 439 0
438 -440 0
358 -440 0
-359 -440 0
-438 -358 359 440 0
430 -441 0
331 -441 0
-332 -441 0
-334 -441 0
-336 -441 0
-338 -441 0
340 -441 0
341 -441 0
-430 -331 332 334 336 338 -340 -341 441 0
430 -442 0
331 -442 0
-332 -442 0
-334 -442 0
-336 -442 0
-338 -442 0
340 -442 0
-341 -442 0
-430 -331 332 334 336 338 -340 341 442 0
-441 443 0
-442 443 0
441 442 -443 0
443 -444 0
344 -444 0
345 -444 0
-443 -344 -345 444 0
443 -445 0
344 -445 0
-345 -445 0
-443 -344 345 445 0
-444 446 0
-445 446 0
444 445 -446 0
446 -447 0
348 -447 0
349 -447 0
-446 -348 -349 447 0
446 -448 0
348 -448 0
-349 -448 0
-446 -348 349 448 0
-439 449 0
-440 449 0
-447 449 0
-448 449 0
439 440 447 448 -449 0
-367 450 0
-368 450 0
367 368 -450 0
-365 451 0
-450 451 0
365 450 -451 0
449 -452 0
451 -452 0
-449 -451 452 0
-421 453 0
-432 453 0
-452 453 0
421 432 452 -453 0
453 -454 0
372 -454 0
374 -454 0
-453 -372 -374 454 0
453 -455 0
-372 -455 0
-453 372 455 0
-454 456 0
-455 456 0
454 455 -456 0
456 -457 0
382 -457 0
-456 -382 457 0
-384 458 0
-385 458 0
384 385 -458 0
456 -459 0
458 -459 0
-456 -458 459 0
-457 460 0
-459 460 0
457 459 -460 0
-278 461 0
278 461 0
272 -462 0
461 -462 0
-272 -461 462 0
-462 463 0
272 463 0
462 -272 -463 0
463 -464 0
285 -464 0
-463 -285 464 0
463 -465 0
-285 -465 0
-463 285 465 0
-464 466 0
-465 466 0
464 465 -466 0
271 -467 0
466 -467 0
-271 -466 467 0
-271 -468 0
463 -468 0
271 -463 468 0
-467 469 0
-468 469 0
467 468 -469 0
469 -470 0
-290 -470 0
-469 290 470 0
469 -471 0
290 -471 0
-469 -290 471 0
-470 472 0
-471 472 0
470 471 -472 0
270 -473 0
472 -473 0
-270 -472 473 0
-270 -474 0
469 -474 0
270 -469 474 0
-473 475 0
-474 475 0
473 474 -475 0
475 -476 0
-295 -476 0
-475 295 476 0
475 -477 0
295 -477 0
-475 -295 477 0
-476 478 0
-477 478 0
476 477 -478 0
269 -479 0
478 -479 0
-269 -478 479 0
-269 -480 0
475 -480 0
269 -475 480 0
-479 481 0
-480 481 0
479 480 -481 0
481 -482 0
-300 -482 0
-481 300 482 0
481 -483 0
300 -483 0
-481 -300 483 0
-482 484 0
-483 484 0
482 483 -484 0
268 -485 0
484 -485 0
-268 -484 485 0
481 -486 0
-304 -486 0
-481 304 486 0
481 -487 0
304 -487 0
-481 -304 487 0
-486 488 0
-487 488 0
486 487 -488 0
303 -489 0
488 -489 0
-303 -488 489 0
-303 -490 0
481 -490 0
303 -481 490 0
-489 491 0
-490 491 0
489 490 -491 0
-268 -492 0
491 -492 0
268 -491 492 0
-485 493 0
-492 493 0
485 492 -493 0
493 -494 0
-311 -494 0
-493 311 494 0
493 -495 0
311 -495 0
312 -495 0
-493 -311 -312 495 0
493 -496 0
311 -496 0
-312 -496 0
-493 -311 312 496 0
-495 497 0
-496 497 0
495 496 -497 0
497 -498 0
315 -498 0
316 -498 0
-497 -315 -316 498 0
497 -499 0
315 -499 0
-316 -499 0
-497 -315 316 499 0
-498 500 0
-499 500 0
498 499 -500 0
500 -501 0
327 -501 0
328 -501 0
-500 -327 -328 501 0
500 -502 0
327 -502 0
-328 -502 0
-500 -327 328 502 0
-501 503 0
-502 503 0
501 502 -503 0
-333 504 0
-335 504 0
-337 504 0
-339 504 0
333 335 337 339 -504 0
503 -505 0
504 -505 0
-503 -504 505 0
503 -506 0
331 -506 0
-332 -506 0
-334 -506 0
-336 -506 0
-338 -506 0
-340 -506 0
351 -506 0
-503 -331 332 334 336 338 340 -351 506 0
503 -507 0
331 -507 0
-332 -507 0
-334 -507 0
-336 -507 0
-338 -507 0
-340 -507 0
-351 -507 0
-503 -331 332 334 336 338 340 351 507 0
-506 508 0
-507 508 0
506 507 -508 0
508 -509 0
354 -509 0
355 -509 0
-508 -354 -355 509 0
508 -510 0
354 -510 0
-355 -510 0
-508 -354 355 510 0
-509 511 0
-510 511 0
509 510 -511 0
511 -512 0
358 -512 0
359 -512 0
-511 -358 -359 512 0
511 -513 0
358 -513 0
-359 -513 0
-511 -358 359 513 0
503 -514 0
331 -514 0
-332 -514 0
-334 -514 0
-336 -514 0
-338 -514 0
340 -514 0
341 -514 0
-503 -331 332 334 336 338 -340 -341 514 0
503 -515 0
331 -515 0
-332 -515 0
-334 -515 0
-336 -515 0
-338 -515 0
340 -515 0
-341 -515 0
-503 -331 332 334 336 338 -340 341 515 0
-514 516 0
-515 516 0
514 515 -516 0
516 -517 0
344 -517 0
345 -517 0
-516 -344 -345 517 0
516 -518 0
344 -518 0
-345 -518 0
-516 -344 345 518 0
-517 519 0
-518 519 0
517 518 -519 0
519 -520 0
348 -520 0
349 -520 0
-519 -348 -349 520 0
519 -521 0
348 -521 0
-349 -521 0
-519 -348 349 521 0
-512 522 0
-513 522 0
-520 522 0
-521 522 0
512 513 520 521 -522 0
-365 523 0
-450 523 0
365 450 -523 0
522 -524 0
523 -524 0
-522 -523 524 0
-494 525 0
-505 525 0
-524 525 0
494 505 524 -525 0
525 -526 0
372 -526 0
374 -526 0
-525 -372 -374 526 0
525 -527 0
-372 -527 0
-525 372 527 0
-526 528 0
-527 528 0
526 527 -528 0
528 -529 0
382 -529 0
-528 -382 529 0
528 -530 0
458 -530 0
-528 -458 530 0
-529 531 0
-530 531 0
529 530 -531 0
-460 -195 -532 0
460 195 -532 0
-460 195 532 0
460 -195 532 0
-531 -266 -533 0
531 266 -533 0
-531 266 533 0
531 -266 533 0
-532 -534 0
-533 -534 0
387 -534 0
532 533 -387 534 0
-122 534 0
